p edge 320 320
c 238
e 4 146 3 7
e 9 243 1 18
e 11 261 1 22
e 12 165 1 27
e 16 234 3 31
e 20 249 1 36
e 24 127 1 44
e 32 303 2 55
e 32 143 1 56
e 33 91 1 58
e 34 249 3 62
e 44 200 1 79
e 51 303 26 89
e 51 302 42 90
e 72 244 1 122
e 81 317 4 130
e 87 315 2 135
e 91 144 1 140
e 114 307 1 167
e 114 295 14 168
e 118 295 2 173
e 122 199 3 183
e 123 283 17 184
e 128 244 1 191
e 133 287 2 200
e 138 164 1 207
e 148 204 1 221
e 172 213 1 236
e 173 221 1 238
e 177 217 1 240
e 179 316 1 243
e 180 306 15 245
e 186 226 1 253
e 210 263 20 276
e 212 213 1 279
e 221 276 1 284
e 225 302 2 286
e 235 266 1 291
e 236 305 20 292
e 236 303 36 293
